p cnf 13 49
-1 -4 -10 0
2 5 11 0
2 -10 13 0
-2 3 -6 0
1 -2 8 0
-5 8 -9 0
-3 -6 -12 0
1 -2 7 0
-7 -12 13 0
-2 8 -12 0
4 -6 7 0
-3 7 11 0
-3 -4 5 0
-2 -3 -4 0
-2 -4 -11 0
-2 -7 12 0
-1 -8 11 0
2 10 -12 0
1 -6 -13 0
2 4 6 0
-2 -7 11 0
2 -7 -8 0
1 5 -6 0
2 -3 7 0
-2 -9 13 0
5 7 -11 0
-5 -11 12 0
3 -9 11 0
-5 10 11 0
-2 -4 9 0
-1 4 -12 0
6 7 -10 0
2 9 -12 0
5 10 -11 0
3 -4 7 0
-2 4 5 0
-4 -8 -13 0
-6 8 13 0
1 -6 -9 0
1 -5 6 0
2 7 -10 0
-2 5 11 0
3 4 -10 0
-4 -6 7 0
2 -11 -12 0
3 -7 -11 0
4 -5 6 0
1 -5 -11 0
-4 8 9 0
